NAME : LPS-n17-m42
COMMENT : (Lartu-Peter-Santi Plot, instance 5642 out of 39200. 17 customers.)
TYPE : CVRP
DIMENSION : 17
EDGE_WEIGHT_TYPE : EUC_2D
CAPACITY : 140
NODE_COORD_SECTION
 1 98 7
 2 78 17
 3 30 7
 4 70 23
 5 10 44
 6 25 29
 7 5 62
 8 17 22
 9 12 65
 10 12 76
 11 42 4
 12 71 95
 13 50 96
 14 72 43
 15 33 1
 16 2 97
 17 80 88
DEMAND_SECTION
1 0
2 55
3 58
4 78
5 64
6 113
7 22
8 125
9 31
10 116
11 64
12 14
13 51
14 41
15 115
16 104
17 43
DEPOT_SECTION
 1
 -1
EOF
